'hugeuniform107'
150 75 75
149
147
144
141
137
135
135
132
132
129
128
127
123
122
121
120
120
119
118
115
114
108
106
103
102
96
92
92
91
89
78
77
77
77
76
75
68
68
68
67
64
64
62
60
59
58
55
52
51
49
49
47
43
41
37
37
36
35
34
30
29
29
28
27
27
23
23
21
18
18
14
13
12
11
8
